p cnf 958 2457
51 -691 -1 0
-51 691 0
-51 1 0
52 -51 -3 0
-52 51 0
-52 3 0
53 -692 -4 0
-53 692 0
-53 4 0
54 -53 -6 0
-54 53 0
-54 6 0
55 -693 -694 0
-55 693 0
-55 694 0
56 -695 -696 0
-56 695 0
-56 696 0
57 -56 -8 0
-57 56 0
-57 8 0
58 -697 -55 0
-58 697 0
-58 55 0
59 -10 -698 0
-59 10 0
-59 698 0
60 -59 -699 0
-60 59 0
-60 699 0
61 -700 -58 0
-61 700 0
-61 58 0
62 -12 -698 0
-62 12 0
-62 698 0
63 -62 -701 0
-63 62 0
-63 701 0
64 -702 -61 0
-64 702 0
-64 61 0
65 -15 -14 0
-65 15 0
-65 14 0
66 -65 -16 0
-66 65 0
-66 16 0
67 -703 -64 0
-67 703 0
-67 64 0
68 -704 -11 0
-68 704 0
-68 11 0
69 -68 -705 0
-69 68 0
-69 705 0
70 -706 -67 0
-70 706 0
-70 67 0
71 -707 -708 0
-71 707 0
-71 708 0
72 -71 -20 0
-72 71 0
-72 20 0
73 -709 -70 0
-73 709 0
-73 70 0
74 -710 -711 0
-74 710 0
-74 711 0
75 -74 -712 0
-75 74 0
-75 712 0
76 -713 -73 0
-76 713 0
-76 73 0
77 -714 -701 0
-77 714 0
-77 701 0
78 -77 -25 0
-78 77 0
-78 25 0
79 -715 -76 0
-79 715 0
-79 76 0
80 -26 -716 0
-80 26 0
-80 716 0
81 -80 -717 0
-81 80 0
-81 717 0
82 -718 -79 0
-82 718 0
-82 79 0
83 -719 -720 0
-83 719 0
-83 720 0
84 -83 -721 0
-84 83 0
-84 721 0
85 -722 -82 0
-85 722 0
-85 82 0
86 -723 -2 0
-86 723 0
-86 2 0
87 -86 -32 0
-87 86 0
-87 32 0
88 -724 -85 0
-88 724 0
-88 85 0
89 -725 -10 0
-89 725 0
-89 10 0
90 -89 -34 0
-90 89 0
-90 34 0
91 -726 -88 0
-91 726 0
-91 88 0
92 -727 -695 0
-92 727 0
-92 695 0
93 -92 -26 0
-93 92 0
-93 26 0
94 -728 -91 0
-94 728 0
-94 91 0
95 -729 -730 0
-95 729 0
-95 730 0
96 -95 -26 0
-96 95 0
-96 26 0
97 -731 -94 0
-97 731 0
-97 94 0
98 -711 -13 0
-98 711 0
-98 13 0
99 -98 -732 0
-99 98 0
-99 732 0
100 -733 -97 0
-100 733 0
-100 97 0
101 -37 -720 0
-101 37 0
-101 720 0
102 -101 -4 0
-102 101 0
-102 4 0
103 -734 -100 0
-103 734 0
-103 100 0
104 -38 -35 0
-104 38 0
-104 35 0
105 -104 -29 0
-105 104 0
-105 29 0
106 -735 -103 0
-106 735 0
-106 103 0
107 -37 -35 0
-107 37 0
-107 35 0
108 -107 -721 0
-108 107 0
-108 721 0
109 -736 -106 0
-109 736 0
-109 106 0
110 -15 -11 0
-110 15 0
-110 11 0
111 -110 -737 0
-111 110 0
-111 737 0
112 -738 -109 0
-112 738 0
-112 109 0
113 -739 -28 0
-113 739 0
-113 28 0
114 -113 -705 0
-114 113 0
-114 705 0
115 -740 -112 0
-115 740 0
-115 112 0
116 -33 -707 0
-116 33 0
-116 707 0
117 -116 -705 0
-117 116 0
-117 705 0
118 -741 -115 0
-118 741 0
-118 115 0
119 -742 -708 0
-119 742 0
-119 708 0
120 -119 -36 0
-120 119 0
-120 36 0
121 -743 -118 0
-121 743 0
-121 118 0
122 -40 -711 0
-122 40 0
-122 711 0
123 -122 -34 0
-123 122 0
-123 34 0
124 -744 -121 0
-124 744 0
-124 121 0
125 -15 -9 0
-125 15 0
-125 9 0
126 -125 -692 0
-126 125 0
-126 692 0
127 -745 -124 0
-127 745 0
-127 124 0
128 -704 -2 0
-128 704 0
-128 2 0
129 -128 -708 0
-129 128 0
-129 708 0
130 -746 -127 0
-130 746 0
-130 127 0
131 -747 -691 0
-131 747 0
-131 691 0
132 -131 -42 0
-132 131 0
-132 42 0
133 -748 -130 0
-133 748 0
-133 130 0
134 -749 -730 0
-134 749 0
-134 730 0
135 -134 -747 0
-135 134 0
-135 747 0
136 -750 -133 0
-136 750 0
-136 133 0
137 -16 -13 0
-137 16 0
-137 13 0
138 -137 -729 0
-138 137 0
-138 729 0
139 -751 -136 0
-139 751 0
-139 136 0
140 -752 -12 0
-140 752 0
-140 12 0
141 -140 -16 0
-141 140 0
-141 16 0
142 -753 -139 0
-142 753 0
-142 139 0
143 -16 -730 0
-143 16 0
-143 730 0
144 -143 -754 0
-144 143 0
-144 754 0
145 -755 -142 0
-145 755 0
-145 142 0
146 -756 -757 0
-146 756 0
-146 757 0
147 -146 -737 0
-147 146 0
-147 737 0
148 -758 -145 0
-148 758 0
-148 145 0
149 -41 -3 0
-149 41 0
-149 3 0
150 -149 -35 0
-150 149 0
-150 35 0
151 -759 -148 0
-151 759 0
-151 148 0
152 -28 -27 0
-152 28 0
-152 27 0
153 -152 -32 0
-153 152 0
-153 32 0
154 -760 -151 0
-154 760 0
-154 151 0
155 -62 -729 0
-155 62 0
-155 729 0
156 -761 -154 0
-156 761 0
-156 154 0
157 -37 -711 0
-157 37 0
-157 711 0
158 -157 -17 0
-158 157 0
-158 17 0
159 -762 -156 0
-159 762 0
-159 156 0
160 -37 -732 0
-160 37 0
-160 732 0
161 -160 -754 0
-161 160 0
-161 754 0
162 -763 -159 0
-162 763 0
-162 159 0
163 -705 -12 0
-163 705 0
-163 12 0
164 -163 -45 0
-164 163 0
-164 45 0
165 -764 -162 0
-165 764 0
-165 162 0
166 -21 -9 0
-166 21 0
-166 9 0
167 -166 -7 0
-167 166 0
-167 7 0
168 -765 -165 0
-168 765 0
-168 165 0
169 -739 -766 0
-169 739 0
-169 766 0
170 -169 -45 0
-170 169 0
-170 45 0
171 -767 -168 0
-171 767 0
-171 168 0
172 -14 -699 0
-172 14 0
-172 699 0
173 -172 -768 0
-173 172 0
-173 768 0
174 -769 -171 0
-174 769 0
-174 171 0
175 -31 -716 0
-175 31 0
-175 716 0
176 -175 -696 0
-176 175 0
-176 696 0
177 -770 -174 0
-177 770 0
-177 174 0
178 -40 -716 0
-178 40 0
-178 716 0
179 -178 -699 0
-179 178 0
-179 699 0
180 -771 -177 0
-180 771 0
-180 177 0
181 -26 -752 0
-181 26 0
-181 752 0
182 -181 -34 0
-182 181 0
-182 34 0
183 -772 -180 0
-183 772 0
-183 180 0
184 -712 -3 0
-184 712 0
-184 3 0
185 -184 -26 0
-185 184 0
-185 26 0
186 -773 -183 0
-186 773 0
-186 183 0
187 -31 -1 0
-187 31 0
-187 1 0
188 -187 -26 0
-188 187 0
-188 26 0
189 -774 -186 0
-189 774 0
-189 186 0
190 -775 -24 0
-190 775 0
-190 24 0
191 -190 -721 0
-191 190 0
-191 721 0
192 -776 -189 0
-192 776 0
-192 189 0
193 -14 -10 0
-193 14 0
-193 10 0
194 -193 -737 0
-194 193 0
-194 737 0
195 -777 -192 0
-195 777 0
-195 192 0
196 -720 -730 0
-196 720 0
-196 730 0
197 -196 -710 0
-197 196 0
-197 710 0
198 -778 -195 0
-198 778 0
-198 195 0
199 -45 -766 0
-199 45 0
-199 766 0
200 -199 -721 0
-200 199 0
-200 721 0
201 -779 -198 0
-201 779 0
-201 198 0
202 -780 -13 0
-202 780 0
-202 13 0
203 -202 -18 0
-203 202 0
-203 18 0
204 -781 -201 0
-204 781 0
-204 201 0
205 -756 -4 0
-205 756 0
-205 4 0
206 -205 -47 0
-206 205 0
-206 47 0
207 -782 -204 0
-207 782 0
-207 204 0
208 -783 -37 0
-208 783 0
-208 37 0
209 -208 -784 0
-209 208 0
-209 784 0
210 -785 -207 0
-210 785 0
-210 207 0
211 -723 -4 0
-211 723 0
-211 4 0
212 -211 -27 0
-212 211 0
-212 27 0
213 -786 -210 0
-213 786 0
-213 210 0
214 -15 -757 0
-214 15 0
-214 757 0
215 -214 -787 0
-215 214 0
-215 787 0
216 -788 -213 0
-216 788 0
-216 213 0
217 -705 -9 0
-217 705 0
-217 9 0
218 -217 -25 0
-218 217 0
-218 25 0
219 -789 -216 0
-219 789 0
-219 216 0
220 -752 -695 0
-220 752 0
-220 695 0
221 -220 -27 0
-221 220 0
-221 27 0
222 -790 -219 0
-222 790 0
-222 219 0
223 -749 -696 0
-223 749 0
-223 696 0
224 -223 -719 0
-224 223 0
-224 719 0
225 -791 -222 0
-225 791 0
-225 222 0
226 -704 -692 0
-226 704 0
-226 692 0
227 -226 -26 0
-227 226 0
-227 26 0
228 -792 -225 0
-228 792 0
-228 225 0
229 -756 -15 0
-229 756 0
-229 15 0
230 -229 -739 0
-230 229 0
-230 739 0
231 -793 -228 0
-231 793 0
-231 228 0
232 -720 -3 0
-232 720 0
-232 3 0
233 -232 -35 0
-233 232 0
-233 35 0
234 -794 -231 0
-234 794 0
-234 231 0
235 -723 -698 0
-235 723 0
-235 698 0
236 -235 -20 0
-236 235 0
-236 20 0
237 -795 -234 0
-237 795 0
-237 234 0
238 -780 -711 0
-238 780 0
-238 711 0
239 -238 -747 0
-239 238 0
-239 747 0
240 -796 -237 0
-240 796 0
-240 237 0
241 -797 -757 0
-241 797 0
-241 757 0
242 -241 -20 0
-242 241 0
-242 20 0
243 -798 -240 0
-243 798 0
-243 240 0
244 -717 -698 0
-244 717 0
-244 698 0
245 -244 -32 0
-245 244 0
-245 32 0
246 -799 -243 0
-246 799 0
-246 243 0
247 -49 -712 0
-247 49 0
-247 712 0
248 -247 -4 0
-248 247 0
-248 4 0
249 -800 -246 0
-249 800 0
-249 246 0
250 -35 -14 0
-250 35 0
-250 14 0
251 -250 -719 0
-251 250 0
-251 719 0
252 -801 -249 0
-252 801 0
-252 249 0
253 -48 -695 0
-253 48 0
-253 695 0
254 -253 -754 0
-254 253 0
-254 754 0
255 -802 -252 0
-255 802 0
-255 252 0
256 -749 -33 0
-256 749 0
-256 33 0
257 -256 -717 0
-257 256 0
-257 717 0
258 -803 -255 0
-258 803 0
-258 255 0
259 -30 -719 0
-259 30 0
-259 719 0
260 -259 -20 0
-260 259 0
-260 20 0
261 -804 -258 0
-261 804 0
-261 258 0
262 -742 -691 0
-262 742 0
-262 691 0
263 -262 -20 0
-263 262 0
-263 20 0
264 -805 -261 0
-264 805 0
-264 261 0
265 -704 -730 0
-265 704 0
-265 730 0
266 -265 -787 0
-266 265 0
-266 787 0
267 -806 -264 0
-267 806 0
-267 264 0
268 -23 -3 0
-268 23 0
-268 3 0
269 -268 -807 0
-269 268 0
-269 807 0
270 -808 -267 0
-270 808 0
-270 267 0
271 -25 -710 0
-271 25 0
-271 710 0
272 -271 -775 0
-272 271 0
-272 775 0
273 -809 -270 0
-273 809 0
-273 270 0
274 -26 -14 0
-274 26 0
-274 14 0
275 -274 -36 0
-275 274 0
-275 36 0
276 -810 -273 0
-276 810 0
-276 273 0
277 -720 -4 0
-277 720 0
-277 4 0
278 -277 -20 0
-278 277 0
-278 20 0
279 -811 -276 0
-279 811 0
-279 276 0
280 -739 -15 0
-280 739 0
-280 15 0
281 -280 -34 0
-281 280 0
-281 34 0
282 -812 -279 0
-282 812 0
-282 279 0
283 -31 -2 0
-283 31 0
-283 2 0
284 -283 -48 0
-284 283 0
-284 48 0
285 -813 -282 0
-285 813 0
-285 282 0
286 -43 -768 0
-286 43 0
-286 768 0
287 -286 -33 0
-287 286 0
-287 33 0
288 -814 -285 0
-288 814 0
-288 285 0
289 -714 -698 0
-289 714 0
-289 698 0
290 -289 -692 0
-290 289 0
-290 692 0
291 -815 -288 0
-291 815 0
-291 288 0
292 -28 -24 0
-292 28 0
-292 24 0
293 -292 -25 0
-293 292 0
-293 25 0
294 -816 -291 0
-294 816 0
-294 291 0
295 -50 -701 0
-295 50 0
-295 701 0
296 -295 -4 0
-296 295 0
-296 4 0
297 -817 -294 0
-297 817 0
-297 294 0
298 -47 -699 0
-298 47 0
-298 699 0
299 -298 -20 0
-299 298 0
-299 20 0
300 -818 -297 0
-300 818 0
-300 297 0
301 -710 -701 0
-301 710 0
-301 701 0
302 -301 -45 0
-302 301 0
-302 45 0
303 -819 -300 0
-303 819 0
-303 300 0
304 -749 -2 0
-304 749 0
-304 2 0
305 -304 -3 0
-305 304 0
-305 3 0
306 -820 -303 0
-306 820 0
-306 303 0
307 -712 -22 0
-307 712 0
-307 22 0
308 -307 -8 0
-308 307 0
-308 8 0
309 -821 -306 0
-309 821 0
-309 306 0
310 -40 -37 0
-310 40 0
-310 37 0
311 -310 -712 0
-311 310 0
-311 712 0
312 -822 -309 0
-312 822 0
-312 309 0
313 -19 -823 0
-313 19 0
-313 823 0
314 -313 -699 0
-314 313 0
-314 699 0
315 -824 -312 0
-315 824 0
-315 312 0
316 -721 -27 0
-316 721 0
-316 27 0
317 -316 -20 0
-317 316 0
-317 20 0
318 -825 -315 0
-318 825 0
-318 315 0
319 -292 -704 0
-319 292 0
-319 704 0
320 -826 -318 0
-320 826 0
-320 318 0
321 -44 -28 0
-321 44 0
-321 28 0
322 -321 -36 0
-322 321 0
-322 36 0
323 -827 -320 0
-323 827 0
-323 320 0
324 -28 -823 0
-324 28 0
-324 823 0
325 -324 -732 0
-325 324 0
-325 732 0
326 -828 -323 0
-326 828 0
-326 323 0
327 -699 -698 0
-327 699 0
-327 698 0
328 -327 -46 0
-328 327 0
-328 46 0
329 -829 -326 0
-329 829 0
-329 326 0
330 -31 -5 0
-330 31 0
-330 5 0
331 -330 -47 0
-331 330 0
-331 47 0
332 -830 -329 0
-332 830 0
-332 329 0
333 -823 -7 0
-333 823 0
-333 7 0
334 -333 -2 0
-334 333 0
-334 2 0
335 -831 -332 0
-335 831 0
-335 332 0
336 -50 -730 0
-336 50 0
-336 730 0
337 -336 -37 0
-337 336 0
-337 37 0
338 -832 -335 0
-338 832 0
-338 335 0
339 -714 -13 0
-339 714 0
-339 13 0
340 -339 -28 0
-340 339 0
-340 28 0
341 -833 -338 0
-341 833 0
-341 338 0
342 -747 -712 0
-342 747 0
-342 712 0
343 -342 -721 0
-343 342 0
-343 721 0
344 -834 -341 0
-344 834 0
-344 341 0
345 -752 -10 0
-345 752 0
-345 10 0
346 -345 -768 0
-346 345 0
-346 768 0
347 -835 -344 0
-347 835 0
-347 344 0
348 -49 -707 0
-348 49 0
-348 707 0
349 -348 -768 0
-349 348 0
-349 768 0
350 -836 -347 0
-350 836 0
-350 347 0
351 -837 -711 0
-351 837 0
-351 711 0
352 -351 -699 0
-352 351 0
-352 699 0
353 -838 -350 0
-353 838 0
-353 350 0
354 -43 -727 0
-354 43 0
-354 727 0
355 -354 -710 0
-355 354 0
-355 710 0
356 -839 -353 0
-356 839 0
-356 353 0
357 -48 -756 0
-357 48 0
-357 756 0
358 -357 -6 0
-358 357 0
-358 6 0
359 -840 -356 0
-359 840 0
-359 356 0
360 -714 -752 0
-360 714 0
-360 752 0
361 -360 -28 0
-361 360 0
-361 28 0
362 -841 -359 0
-362 841 0
-362 359 0
363 -780 -35 0
-363 780 0
-363 35 0
364 -363 -17 0
-364 363 0
-364 17 0
365 -842 -362 0
-365 842 0
-365 362 0
366 -723 -5 0
-366 723 0
-366 5 0
367 -366 -784 0
-367 366 0
-367 784 0
368 -843 -365 0
-368 843 0
-368 365 0
369 -807 -3 0
-369 807 0
-369 3 0
370 -369 -844 0
-370 369 0
-370 844 0
371 -845 -368 0
-371 845 0
-371 368 0
372 -50 -8 0
-372 50 0
-372 8 0
373 -372 -30 0
-373 372 0
-373 30 0
374 -846 -371 0
-374 846 0
-374 371 0
375 -21 -7 0
-375 21 0
-375 7 0
376 -375 -31 0
-376 375 0
-376 31 0
377 -847 -374 0
-377 847 0
-377 374 0
378 -848 -730 0
-378 848 0
-378 730 0
379 -378 -705 0
-379 378 0
-379 705 0
380 -849 -377 0
-380 849 0
-380 377 0
381 -44 -3 0
-381 44 0
-381 3 0
382 -381 -737 0
-382 381 0
-382 737 0
383 -850 -380 0
-383 850 0
-383 380 0
384 -783 -16 0
-384 783 0
-384 16 0
385 -384 -5 0
-385 384 0
-385 5 0
386 -851 -383 0
-386 851 0
-386 383 0
387 -21 -696 0
-387 21 0
-387 696 0
388 -387 -807 0
-388 387 0
-388 807 0
389 -852 -386 0
-389 852 0
-389 386 0
390 -44 -698 0
-390 44 0
-390 698 0
391 -390 -704 0
-391 390 0
-391 704 0
392 -853 -389 0
-392 853 0
-392 389 0
393 -848 -844 0
-393 848 0
-393 844 0
394 -393 -46 0
-394 393 0
-394 46 0
395 -854 -392 0
-395 854 0
-395 392 0
396 -41 -24 0
-396 41 0
-396 24 0
397 -396 -33 0
-397 396 0
-397 33 0
398 -855 -395 0
-398 855 0
-398 395 0
399 -768 -2 0
-399 768 0
-399 2 0
400 -399 -754 0
-400 399 0
-400 754 0
401 -856 -398 0
-401 856 0
-401 398 0
402 -837 -710 0
-402 837 0
-402 710 0
403 -402 -732 0
-403 402 0
-403 732 0
404 -857 -401 0
-404 857 0
-404 401 0
405 -23 -823 0
-405 23 0
-405 823 0
406 -405 -6 0
-406 405 0
-406 6 0
407 -858 -404 0
-407 858 0
-407 404 0
408 -729 -25 0
-408 729 0
-408 25 0
409 -408 -20 0
-409 408 0
-409 20 0
410 -859 -407 0
-410 859 0
-410 407 0
411 -217 -6 0
-411 217 0
-411 6 0
412 -860 -410 0
-412 860 0
-412 410 0
413 -739 -714 0
-413 739 0
-413 714 0
414 -413 -32 0
-414 413 0
-414 32 0
415 -861 -412 0
-415 861 0
-415 412 0
416 -768 -28 0
-416 768 0
-416 28 0
417 -416 -797 0
-417 416 0
-417 797 0
418 -862 -415 0
-418 862 0
-418 415 0
419 -43 -807 0
-419 43 0
-419 807 0
420 -419 -768 0
-420 419 0
-420 768 0
421 -863 -418 0
-421 863 0
-421 418 0
422 -34 -15 0
-422 34 0
-422 15 0
423 -422 -775 0
-423 422 0
-423 775 0
424 -864 -421 0
-424 864 0
-424 421 0
425 -381 -26 0
-425 381 0
-425 26 0
426 -865 -424 0
-426 865 0
-426 424 0
427 -29 -4 0
-427 29 0
-427 4 0
428 -427 -787 0
-428 427 0
-428 787 0
429 -866 -426 0
-429 866 0
-429 426 0
430 -396 -807 0
-430 396 0
-430 807 0
431 -867 -429 0
-431 867 0
-431 429 0
432 -775 -12 0
-432 775 0
-432 12 0
433 -432 -737 0
-433 432 0
-433 737 0
434 -868 -431 0
-434 868 0
-434 431 0
435 -747 -716 0
-435 747 0
-435 716 0
436 -435 -27 0
-436 435 0
-436 27 0
437 -869 -434 0
-437 869 0
-437 434 0
438 -704 -701 0
-438 704 0
-438 701 0
439 -438 -8 0
-439 438 0
-439 8 0
440 -870 -437 0
-440 870 0
-440 437 0
441 -848 -32 0
-441 848 0
-441 32 0
442 -441 -784 0
-442 441 0
-442 784 0
443 -871 -440 0
-443 871 0
-443 440 0
444 -36 -729 0
-444 36 0
-444 729 0
445 -444 -30 0
-445 444 0
-445 30 0
446 -872 -443 0
-446 872 0
-446 443 0
447 -716 -699 0
-447 716 0
-447 699 0
448 -447 -717 0
-448 447 0
-448 717 0
449 -873 -446 0
-449 873 0
-449 446 0
450 -874 -4 0
-450 874 0
-450 4 0
451 -450 -721 0
-451 450 0
-451 721 0
452 -875 -449 0
-452 875 0
-452 449 0
453 -345 -787 0
-453 345 0
-453 787 0
454 -876 -452 0
-454 876 0
-454 452 0
455 -33 -874 0
-455 33 0
-455 874 0
456 -455 -36 0
-456 455 0
-456 36 0
457 -877 -454 0
-457 877 0
-457 454 0
458 -25 -757 0
-458 25 0
-458 757 0
459 -458 -47 0
-459 458 0
-459 47 0
460 -878 -457 0
-460 878 0
-460 457 0
461 -699 -10 0
-461 699 0
-461 10 0
462 -461 -26 0
-462 461 0
-462 26 0
463 -879 -460 0
-463 879 0
-463 460 0
464 -749 -4 0
-464 749 0
-464 4 0
465 -464 -29 0
-465 464 0
-465 29 0
466 -880 -463 0
-466 880 0
-466 463 0
467 -719 -823 0
-467 719 0
-467 823 0
468 -467 -34 0
-468 467 0
-468 34 0
469 -881 -466 0
-469 881 0
-469 466 0
470 -50 -823 0
-470 50 0
-470 823 0
471 -470 -18 0
-471 470 0
-471 18 0
472 -882 -469 0
-472 882 0
-472 469 0
473 -313 -747 0
-473 313 0
-473 747 0
474 -883 -472 0
-474 883 0
-474 472 0
475 -698 -691 0
-475 698 0
-475 691 0
476 -475 -704 0
-476 475 0
-476 704 0
477 -884 -474 0
-477 884 0
-477 474 0
478 -19 -17 0
-478 19 0
-478 17 0
479 -478 -766 0
-479 478 0
-479 766 0
480 -885 -477 0
-480 885 0
-480 477 0
481 -704 -737 0
-481 704 0
-481 737 0
482 -481 -754 0
-482 481 0
-482 754 0
483 -886 -480 0
-483 886 0
-483 480 0
484 -40 -1 0
-484 40 0
-484 1 0
485 -484 -768 0
-485 484 0
-485 768 0
486 -887 -483 0
-486 887 0
-486 483 0
487 -10 -1 0
-487 10 0
-487 1 0
488 -487 -708 0
-488 487 0
-488 708 0
489 -888 -486 0
-489 888 0
-489 486 0
490 -44 -15 0
-490 44 0
-490 15 0
491 -490 -737 0
-491 490 0
-491 737 0
492 -889 -489 0
-492 889 0
-492 489 0
493 -716 -5 0
-493 716 0
-493 5 0
494 -493 -725 0
-494 493 0
-494 725 0
495 -890 -492 0
-495 890 0
-495 492 0
496 -891 -21 0
-496 891 0
-496 21 0
497 -496 -787 0
-497 496 0
-497 787 0
498 -892 -495 0
-498 892 0
-498 495 0
499 -716 -730 0
-499 716 0
-499 730 0
500 -499 -754 0
-500 499 0
-500 754 0
501 -893 -498 0
-501 893 0
-501 498 0
502 -32 -2 0
-502 32 0
-502 2 0
503 -502 -797 0
-503 502 0
-503 797 0
504 -894 -501 0
-504 894 0
-504 501 0
505 -823 -696 0
-505 823 0
-505 696 0
506 -505 -5 0
-506 505 0
-506 5 0
507 -895 -504 0
-507 895 0
-507 504 0
508 -37 -729 0
-508 37 0
-508 729 0
509 -508 -704 0
-509 508 0
-509 704 0
510 -896 -507 0
-510 896 0
-510 507 0
511 -823 -727 0
-511 823 0
-511 727 0
512 -511 -704 0
-512 511 0
-512 704 0
513 -897 -510 0
-513 897 0
-513 510 0
514 -749 -41 0
-514 749 0
-514 41 0
515 -514 -708 0
-515 514 0
-515 708 0
516 -898 -513 0
-516 898 0
-516 513 0
517 -729 -2 0
-517 729 0
-517 2 0
518 -517 -30 0
-518 517 0
-518 30 0
519 -899 -516 0
-519 899 0
-519 516 0
520 -837 -41 0
-520 837 0
-520 41 0
521 -520 -719 0
-521 520 0
-521 719 0
522 -900 -519 0
-522 900 0
-522 519 0
523 -470 -696 0
-523 470 0
-523 696 0
524 -901 -522 0
-524 901 0
-524 522 0
525 -749 -727 0
-525 749 0
-525 727 0
526 -525 -45 0
-526 525 0
-526 45 0
527 -902 -524 0
-527 902 0
-527 524 0
528 -783 -17 0
-528 783 0
-528 17 0
529 -528 -844 0
-529 528 0
-529 844 0
530 -903 -527 0
-530 903 0
-530 527 0
531 -33 -710 0
-531 33 0
-531 710 0
532 -531 -32 0
-532 531 0
-532 32 0
533 -904 -530 0
-533 904 0
-533 530 0
534 -43 -823 0
-534 43 0
-534 823 0
535 -534 -47 0
-535 534 0
-535 47 0
536 -905 -533 0
-536 905 0
-536 533 0
537 -707 -692 0
-537 707 0
-537 692 0
538 -537 -20 0
-538 537 0
-538 20 0
539 -906 -536 0
-539 906 0
-539 536 0
540 -265 -719 0
-540 265 0
-540 719 0
541 -907 -539 0
-541 907 0
-541 539 0
542 -704 -7 0
-542 704 0
-542 7 0
543 -542 -8 0
-543 542 0
-543 8 0
544 -908 -541 0
-544 908 0
-544 541 0
545 -720 -25 0
-545 720 0
-545 25 0
546 -545 -732 0
-546 545 0
-546 732 0
547 -909 -544 0
-547 909 0
-547 544 0
548 -22 -716 0
-548 22 0
-548 716 0
549 -548 -705 0
-549 548 0
-549 705 0
550 -910 -547 0
-550 910 0
-550 547 0
551 -531 -25 0
-551 531 0
-551 25 0
552 -911 -550 0
-552 911 0
-552 550 0
553 -752 -823 0
-553 752 0
-553 823 0
554 -553 -18 0
-554 553 0
-554 18 0
555 -912 -552 0
-555 912 0
-555 552 0
556 -10 -695 0
-556 10 0
-556 695 0
557 -556 -768 0
-557 556 0
-557 768 0
558 -913 -555 0
-558 913 0
-558 555 0
559 -13 -3 0
-559 13 0
-559 3 0
560 -559 -732 0
-560 559 0
-560 732 0
561 -914 -558 0
-561 914 0
-561 558 0
562 -729 -13 0
-562 729 0
-562 13 0
563 -562 -18 0
-563 562 0
-563 18 0
564 -915 -561 0
-564 915 0
-564 561 0
565 -48 -848 0
-565 48 0
-565 848 0
566 -565 -18 0
-566 565 0
-566 18 0
567 -916 -564 0
-567 916 0
-567 564 0
568 -784 -33 0
-568 784 0
-568 33 0
569 -568 -6 0
-569 568 0
-569 6 0
570 -917 -567 0
-570 917 0
-570 567 0
571 -46 -2 0
-571 46 0
-571 2 0
572 -571 -754 0
-572 571 0
-572 754 0
573 -918 -570 0
-573 918 0
-573 570 0
574 -23 -710 0
-574 23 0
-574 710 0
575 -574 -32 0
-575 574 0
-575 32 0
576 -919 -573 0
-576 919 0
-576 573 0
577 -720 -11 0
-577 720 0
-577 11 0
578 -577 -47 0
-578 577 0
-578 47 0
579 -920 -576 0
-579 920 0
-579 576 0
580 -714 -692 0
-580 714 0
-580 692 0
581 -580 -717 0
-581 580 0
-581 717 0
582 -921 -579 0
-582 921 0
-582 579 0
583 -50 -34 0
-583 50 0
-583 34 0
584 -583 -47 0
-584 583 0
-584 47 0
585 -922 -582 0
-585 922 0
-585 582 0
586 -723 -9 0
-586 723 0
-586 9 0
587 -586 -712 0
-587 586 0
-587 712 0
588 -923 -585 0
-588 923 0
-588 585 0
589 -749 -723 0
-589 749 0
-589 723 0
590 -589 -23 0
-590 589 0
-590 23 0
591 -924 -588 0
-591 924 0
-591 588 0
592 -28 -711 0
-592 28 0
-592 711 0
593 -592 -717 0
-593 592 0
-593 717 0
594 -925 -591 0
-594 925 0
-594 591 0
595 -11 -696 0
-595 11 0
-595 696 0
596 -595 -5 0
-596 595 0
-596 5 0
597 -926 -594 0
-597 926 0
-597 594 0
598 -704 -757 0
-598 704 0
-598 757 0
599 -598 -46 0
-599 598 0
-599 46 0
600 -927 -597 0
-600 927 0
-600 597 0
601 -766 -710 0
-601 766 0
-601 710 0
602 -601 -797 0
-602 601 0
-602 797 0
603 -928 -600 0
-603 928 0
-603 600 0
604 -104 -18 0
-604 104 0
-604 18 0
605 -929 -603 0
-605 929 0
-605 603 0
606 -40 -752 0
-606 40 0
-606 752 0
607 -606 -42 0
-607 606 0
-607 42 0
608 -930 -605 0
-608 930 0
-608 605 0
609 -15 -2 0
-609 15 0
-609 2 0
610 -609 -34 0
-610 609 0
-610 34 0
611 -931 -608 0
-611 931 0
-611 608 0
612 -848 -727 0
-612 848 0
-612 727 0
613 -612 -704 0
-613 612 0
-613 704 0
614 -932 -611 0
-614 932 0
-614 611 0
615 -10 -7 0
-615 10 0
-615 7 0
616 -615 -692 0
-616 615 0
-616 692 0
617 -933 -614 0
-617 933 0
-617 614 0
618 -837 -31 0
-618 837 0
-618 31 0
619 -618 -28 0
-619 618 0
-619 28 0
620 -934 -617 0
-620 934 0
-620 617 0
621 -742 -823 0
-621 742 0
-621 823 0
622 -621 -775 0
-622 621 0
-622 775 0
623 -935 -620 0
-623 935 0
-623 620 0
624 -749 -757 0
-624 749 0
-624 757 0
625 -624 -699 0
-625 624 0
-625 699 0
626 -936 -623 0
-626 936 0
-626 623 0
627 -39 -12 0
-627 39 0
-627 12 0
628 -627 -787 0
-628 627 0
-628 787 0
629 -937 -626 0
-629 937 0
-629 626 0
630 -49 -33 0
-630 49 0
-630 33 0
631 -630 -732 0
-631 630 0
-631 732 0
632 -938 -629 0
-632 938 0
-632 629 0
633 -823 -5 0
-633 823 0
-633 5 0
634 -633 -30 0
-634 633 0
-634 30 0
635 -939 -632 0
-635 939 0
-635 632 0
636 -711 -7 0
-636 711 0
-636 7 0
637 -636 -25 0
-637 636 0
-637 25 0
638 -940 -635 0
-638 940 0
-638 635 0
639 -23 -22 0
-639 23 0
-639 22 0
640 -639 -704 0
-640 639 0
-640 704 0
641 -941 -638 0
-641 941 0
-641 638 0
642 -29 -3 0
-642 29 0
-642 3 0
643 -642 -708 0
-643 642 0
-643 708 0
644 -942 -641 0
-644 942 0
-644 641 0
645 -49 -43 0
-645 49 0
-645 43 0
646 -645 -717 0
-646 645 0
-646 717 0
647 -943 -644 0
-647 943 0
-647 644 0
648 -749 -768 0
-648 749 0
-648 768 0
649 -648 -34 0
-649 648 0
-649 34 0
650 -944 -647 0
-650 944 0
-650 647 0
651 -39 -707 0
-651 39 0
-651 707 0
652 -651 -4 0
-652 651 0
-652 4 0
653 -945 -650 0
-653 945 0
-653 650 0
654 -48 -705 0
-654 48 0
-654 705 0
655 -654 -6 0
-655 654 0
-655 6 0
656 -946 -653 0
-656 946 0
-656 653 0
657 -720 -22 0
-657 720 0
-657 22 0
658 -657 -6 0
-658 657 0
-658 6 0
659 -947 -656 0
-659 947 0
-659 656 0
660 -68 -18 0
-660 68 0
-660 18 0
661 -948 -659 0
-661 948 0
-661 659 0
662 -725 -712 0
-662 725 0
-662 712 0
663 -662 -27 0
-663 662 0
-663 27 0
664 -949 -661 0
-664 949 0
-664 661 0
665 -19 -701 0
-665 19 0
-665 701 0
666 -665 -717 0
-666 665 0
-666 717 0
667 -950 -664 0
-667 950 0
-667 664 0
668 -175 -807 0
-668 175 0
-668 807 0
669 -951 -667 0
-669 951 0
-669 667 0
670 -823 -3 0
-670 823 0
-670 3 0
671 -670 -26 0
-671 670 0
-671 26 0
672 -952 -669 0
-672 952 0
-672 669 0
673 -723 -19 0
-673 723 0
-673 19 0
674 -673 -36 0
-674 673 0
-674 36 0
675 -953 -672 0
-675 953 0
-675 672 0
676 -48 -18 0
-676 48 0
-676 18 0
677 -676 -8 0
-677 676 0
-677 8 0
678 -954 -675 0
-678 954 0
-678 675 0
679 -24 -18 0
-679 24 0
-679 18 0
680 -679 -754 0
-680 679 0
-680 754 0
681 -955 -678 0
-681 955 0
-681 678 0
682 -707 -695 0
-682 707 0
-682 695 0
683 -682 -787 0
-683 682 0
-683 787 0
684 -956 -681 0
-684 956 0
-684 681 0
685 -874 -14 0
-685 874 0
-685 14 0
686 -685 -732 0
-686 685 0
-686 732 0
687 -957 -684 0
-687 957 0
-687 684 0
688 -848 -17 0
-688 848 0
-688 17 0
689 -688 -26 0
-689 688 0
-689 26 0
690 -958 -687 0
-690 958 0
-690 687 0
-691 -2 0
691 2 0
-692 -5 0
692 5 0
-693 -54 0
693 54 0
-694 -52 0
694 52 0
-695 -7 0
695 7 0
-696 -3 0
696 3 0
-697 -57 0
697 57 0
-698 -9 0
698 9 0
-699 -11 0
699 11 0
-700 -60 0
700 60 0
-701 -13 0
701 13 0
-702 -63 0
702 63 0
-703 -66 0
703 66 0
-704 -17 0
704 17 0
-705 -18 0
705 18 0
-706 -69 0
706 69 0
-707 -19 0
707 19 0
-708 -8 0
708 8 0
-709 -72 0
709 72 0
-710 -22 0
710 22 0
-711 -21 0
711 21 0
-712 -23 0
712 23 0
-713 -75 0
713 75 0
-714 -24 0
714 24 0
-715 -78 0
715 78 0
-716 -16 0
716 16 0
-717 -27 0
717 27 0
-718 -81 0
718 81 0
-719 -29 0
719 29 0
-720 -28 0
720 28 0
-721 -30 0
721 30 0
-722 -84 0
722 84 0
-723 -31 0
723 31 0
-724 -87 0
724 87 0
-725 -33 0
725 33 0
-726 -90 0
726 90 0
-727 -12 0
727 12 0
-728 -93 0
728 93 0
-729 -35 0
729 35 0
-730 -1 0
730 1 0
-731 -96 0
731 96 0
-732 -36 0
732 36 0
-733 -99 0
733 99 0
-734 -102 0
734 102 0
-735 -105 0
735 105 0
-736 -108 0
736 108 0
-737 -6 0
737 6 0
-738 -111 0
738 111 0
-739 -37 0
739 37 0
-740 -114 0
740 114 0
-741 -117 0
741 117 0
-742 -39 0
742 39 0
-743 -120 0
743 120 0
-744 -123 0
744 123 0
-745 -126 0
745 126 0
-746 -129 0
746 129 0
-747 -41 0
747 41 0
-748 -132 0
748 132 0
-749 -43 0
749 43 0
-750 -135 0
750 135 0
-751 -138 0
751 138 0
-752 -15 0
752 15 0
-753 -141 0
753 141 0
-754 -20 0
754 20 0
-755 -144 0
755 144 0
-756 -44 0
756 44 0
-757 -10 0
757 10 0
-758 -147 0
758 147 0
-759 -150 0
759 150 0
-760 -153 0
760 153 0
-761 -155 0
761 155 0
-762 -158 0
762 158 0
-763 -161 0
763 161 0
-764 -164 0
764 164 0
-765 -167 0
765 167 0
-766 -34 0
766 34 0
-767 -170 0
767 170 0
-768 -38 0
768 38 0
-769 -173 0
769 173 0
-770 -176 0
770 176 0
-771 -179 0
771 179 0
-772 -182 0
772 182 0
-773 -185 0
773 185 0
-774 -188 0
774 188 0
-775 -46 0
775 46 0
-776 -191 0
776 191 0
-777 -194 0
777 194 0
-778 -197 0
778 197 0
-779 -200 0
779 200 0
-780 -40 0
780 40 0
-781 -203 0
781 203 0
-782 -206 0
782 206 0
-783 -48 0
783 48 0
-784 -45 0
784 45 0
-785 -209 0
785 209 0
-786 -212 0
786 212 0
-787 -25 0
787 25 0
-788 -215 0
788 215 0
-789 -218 0
789 218 0
-790 -221 0
790 221 0
-791 -224 0
791 224 0
-792 -227 0
792 227 0
-793 -230 0
793 230 0
-794 -233 0
794 233 0
-795 -236 0
795 236 0
-796 -239 0
796 239 0
-797 -47 0
797 47 0
-798 -242 0
798 242 0
-799 -245 0
799 245 0
-800 -248 0
800 248 0
-801 -251 0
801 251 0
-802 -254 0
802 254 0
-803 -257 0
803 257 0
-804 -260 0
804 260 0
-805 -263 0
805 263 0
-806 -266 0
806 266 0
-807 -4 0
807 4 0
-808 -269 0
808 269 0
-809 -272 0
809 272 0
-810 -275 0
810 275 0
-811 -278 0
811 278 0
-812 -281 0
812 281 0
-813 -284 0
813 284 0
-814 -287 0
814 287 0
-815 -290 0
815 290 0
-816 -293 0
816 293 0
-817 -296 0
817 296 0
-818 -299 0
818 299 0
-819 -302 0
819 302 0
-820 -305 0
820 305 0
-821 -308 0
821 308 0
-822 -311 0
822 311 0
-823 -14 0
823 14 0
-824 -314 0
824 314 0
-825 -317 0
825 317 0
-826 -319 0
826 319 0
-827 -322 0
827 322 0
-828 -325 0
828 325 0
-829 -328 0
829 328 0
-830 -331 0
830 331 0
-831 -334 0
831 334 0
-832 -337 0
832 337 0
-833 -340 0
833 340 0
-834 -343 0
834 343 0
-835 -346 0
835 346 0
-836 -349 0
836 349 0
-837 -49 0
837 49 0
-838 -352 0
838 352 0
-839 -355 0
839 355 0
-840 -358 0
840 358 0
-841 -361 0
841 361 0
-842 -364 0
842 364 0
-843 -367 0
843 367 0
-844 -26 0
844 26 0
-845 -370 0
845 370 0
-846 -373 0
846 373 0
-847 -376 0
847 376 0
-848 -42 0
848 42 0
-849 -379 0
849 379 0
-850 -382 0
850 382 0
-851 -385 0
851 385 0
-852 -388 0
852 388 0
-853 -391 0
853 391 0
-854 -394 0
854 394 0
-855 -397 0
855 397 0
-856 -400 0
856 400 0
-857 -403 0
857 403 0
-858 -406 0
858 406 0
-859 -409 0
859 409 0
-860 -411 0
860 411 0
-861 -414 0
861 414 0
-862 -417 0
862 417 0
-863 -420 0
863 420 0
-864 -423 0
864 423 0
-865 -425 0
865 425 0
-866 -428 0
866 428 0
-867 -430 0
867 430 0
-868 -433 0
868 433 0
-869 -436 0
869 436 0
-870 -439 0
870 439 0
-871 -442 0
871 442 0
-872 -445 0
872 445 0
-873 -448 0
873 448 0
-874 -32 0
874 32 0
-875 -451 0
875 451 0
-876 -453 0
876 453 0
-877 -456 0
877 456 0
-878 -459 0
878 459 0
-879 -462 0
879 462 0
-880 -465 0
880 465 0
-881 -468 0
881 468 0
-882 -471 0
882 471 0
-883 -473 0
883 473 0
-884 -476 0
884 476 0
-885 -479 0
885 479 0
-886 -482 0
886 482 0
-887 -485 0
887 485 0
-888 -488 0
888 488 0
-889 -491 0
889 491 0
-890 -494 0
890 494 0
-891 -50 0
891 50 0
-892 -497 0
892 497 0
-893 -500 0
893 500 0
-894 -503 0
894 503 0
-895 -506 0
895 506 0
-896 -509 0
896 509 0
-897 -512 0
897 512 0
-898 -515 0
898 515 0
-899 -518 0
899 518 0
-900 -521 0
900 521 0
-901 -523 0
901 523 0
-902 -526 0
902 526 0
-903 -529 0
903 529 0
-904 -532 0
904 532 0
-905 -535 0
905 535 0
-906 -538 0
906 538 0
-907 -540 0
907 540 0
-908 -543 0
908 543 0
-909 -546 0
909 546 0
-910 -549 0
910 549 0
-911 -551 0
911 551 0
-912 -554 0
912 554 0
-913 -557 0
913 557 0
-914 -560 0
914 560 0
-915 -563 0
915 563 0
-916 -566 0
916 566 0
-917 -569 0
917 569 0
-918 -572 0
918 572 0
-919 -575 0
919 575 0
-920 -578 0
920 578 0
-921 -581 0
921 581 0
-922 -584 0
922 584 0
-923 -587 0
923 587 0
-924 -590 0
924 590 0
-925 -593 0
925 593 0
-926 -596 0
926 596 0
-927 -599 0
927 599 0
-928 -602 0
928 602 0
-929 -604 0
929 604 0
-930 -607 0
930 607 0
-931 -610 0
931 610 0
-932 -613 0
932 613 0
-933 -616 0
933 616 0
-934 -619 0
934 619 0
-935 -622 0
935 622 0
-936 -625 0
936 625 0
-937 -628 0
937 628 0
-938 -631 0
938 631 0
-939 -634 0
939 634 0
-940 -637 0
940 637 0
-941 -640 0
941 640 0
-942 -643 0
942 643 0
-943 -646 0
943 646 0
-944 -649 0
944 649 0
-945 -652 0
945 652 0
-946 -655 0
946 655 0
-947 -658 0
947 658 0
-948 -660 0
948 660 0
-949 -663 0
949 663 0
-950 -666 0
950 666 0
-951 -668 0
951 668 0
-952 -671 0
952 671 0
-953 -674 0
953 674 0
-954 -677 0
954 677 0
-955 -680 0
955 680 0
-956 -683 0
956 683 0
-957 -686 0
957 686 0
-958 -689 0
958 689 0
690 0
